44 92 83 59 42 24 40 25 54 14 80 3 72 77 39 27 75 9 64 74 66 57 21 84 90 52 60 45 0 17 51 38 79 88 47 69 4 32 62 46 58 12 93 98 29 49 48 63 94 67 86 26 1 31 6 61 2 34 71 78 73 33 36 56 89 50 99 95 15 68 85 10 53 97 13 28 37 20 43 5 96 91 22 8 81 30 87 7 16 11 23 41 65 19 82 76 55 18 70 35